227063.0
2226
5 6 10 11 13 14 16 17 18 19 25 31 36 38 39 44 45 46 49 54 55 56 58 59 60 61 62 63 64 65 70 73 74 75 80 83 85 87 88 90 91 94 95 97 101 103 104 107 109 110 111 112 114 115 116 117 118 119 120 121 122 123 124 125 129 133 136 138 139 143 144 150 151 153 155 156 157 159 160 161 162 163 164 166 167 168 171 178 180 181 182 183 185 186 188 192 193 195 198 